(set-logic ALL)
(set-option :produce-models true)
(declare-sort BoundSet 0)
(declare-sort UnboundSet 0)
(set-option :finite-model-find true)
(declare-fun IsHavingLunch (BoundSet) Bool)
(declare-fun IsNewGirl (BoundSet) Bool)
(declare-fun IsDitching (BoundSet) Bool)
(declare-fun HasOldFriends (BoundSet) Bool)
(assert (not (=> (exists ((b BoundSet)) (exists ((a BoundSet)) (and (IsHavingLunch a) (IsNewGirl b)))) (exists ((b BoundSet)) (exists ((a BoundSet)) (exists ((c BoundSet)) (and (IsDitching a) (and (HasOldFriends a) (and (not (HasOldFriends c)) (IsNewGirl b))))))))))
(check-sat)
(get-model)